
;this file is automatically generated: Tue Oct 27 10:34:59 CST 2020

;declarations generated

(declare-fun type_91f15562_43f5_4386_ac23_9e65ea0a85b0_Class24 ( Int) Bool)
(declare-fun obj_e2ed921e_99fa_43ce_8e9b_88eb9c176ed3 ( Int) Int)
(declare-fun oclExcludes ( Int Int) Bool)
(declare-fun type_91f15562_43f5_4386_ac23_9e65ea0a85b0_Class28 ( Int) Bool)
(declare-fun Cardinality ( Int) Int)
(declare-fun class0_Class0IntAttr3 ( Int) Int)
(declare-fun class0_Class0IntAttr4 ( Int) Int)
(declare-fun type_91f15562_43f5_4386_ac23_9e65ea0a85b0_Class14 ( Int) Bool)
(declare-fun type_91f15562_43f5_4386_ac23_9e65ea0a85b0_Class17 ( Int) Bool)
(declare-fun oclSelect ( Int Bool) Int)
(declare-fun Enum0 ( Int) Int)
(declare-fun Enum1 ( Int) Int)
(declare-fun Enum2 ( Int) Int)
(declare-fun type_91f15562_43f5_4386_ac23_9e65ea0a85b0_Class8 ( Int) Bool)
(declare-fun container_ ( Int) Int)
(declare-fun type_91f15562_43f5_4386_ac23_9e65ea0a85b0_Class4 ( Int) Bool)
(declare-fun type_91f15562_43f5_4386_ac23_9e65ea0a85b0_Class0 ( Int) Bool)
(declare-fun oclIncludes ( Int Int) Bool)
(declare-fun ObjAt ( Int Int) Int)

;formula(s) generated
(assert (! (forall ((c0_1 Int)(c0_2 Int)) (=> (and (and (and (and (and (and (and ( type_91f15562_43f5_4386_ac23_9e65ea0a85b0_Class0 c0_1 )  ( type_91f15562_43f5_4386_ac23_9e65ea0a85b0_Class14 c0_1 ) ) ( type_91f15562_43f5_4386_ac23_9e65ea0a85b0_Class24 c0_1 ) ) ( type_91f15562_43f5_4386_ac23_9e65ea0a85b0_Class8 c0_1 ) ) ( type_91f15562_43f5_4386_ac23_9e65ea0a85b0_Class17 c0_1 ) ) ( type_91f15562_43f5_4386_ac23_9e65ea0a85b0_Class28 c0_1 ) ) ( type_91f15562_43f5_4386_ac23_9e65ea0a85b0_Class4 c0_1 ) ) (and (and (and (and (and (and ( type_91f15562_43f5_4386_ac23_9e65ea0a85b0_Class0 c0_2 )  ( type_91f15562_43f5_4386_ac23_9e65ea0a85b0_Class14 c0_2 ) ) ( type_91f15562_43f5_4386_ac23_9e65ea0a85b0_Class24 c0_2 ) ) ( type_91f15562_43f5_4386_ac23_9e65ea0a85b0_Class8 c0_2 ) ) ( type_91f15562_43f5_4386_ac23_9e65ea0a85b0_Class17 c0_2 ) ) ( type_91f15562_43f5_4386_ac23_9e65ea0a85b0_Class28 c0_2 ) ) ( type_91f15562_43f5_4386_ac23_9e65ea0a85b0_Class4 c0_2 ) )) (<= ( class0_Class0IntAttr4 ( obj_e2ed921e_99fa_43ce_8e9b_88eb9c176ed3 c0_1 )  )  ( class0_Class0IntAttr3 ( obj_e2ed921e_99fa_43ce_8e9b_88eb9c176ed3 c0_2 )  ) ))):named l0))
(assert (! (forall ((v Int)) (=> (and (and (and (and (and (and ( type_91f15562_43f5_4386_ac23_9e65ea0a85b0_Class0 v )  ( type_91f15562_43f5_4386_ac23_9e65ea0a85b0_Class14 v ) ) ( type_91f15562_43f5_4386_ac23_9e65ea0a85b0_Class24 v ) ) ( type_91f15562_43f5_4386_ac23_9e65ea0a85b0_Class8 v ) ) ( type_91f15562_43f5_4386_ac23_9e65ea0a85b0_Class17 v ) ) ( type_91f15562_43f5_4386_ac23_9e65ea0a85b0_Class28 v ) ) ( type_91f15562_43f5_4386_ac23_9e65ea0a85b0_Class4 v ) ) (> ( class0_Class0IntAttr3 ( obj_e2ed921e_99fa_43ce_8e9b_88eb9c176ed3 v )  )  3))):named l1))
(assert (exists ((o Int)) (and (and (and (and (and (and ( type_91f15562_43f5_4386_ac23_9e65ea0a85b0_Class0 ( obj_e2ed921e_99fa_43ce_8e9b_88eb9c176ed3 o )  )  ( type_91f15562_43f5_4386_ac23_9e65ea0a85b0_Class14 ( obj_e2ed921e_99fa_43ce_8e9b_88eb9c176ed3 o )  ) ) ( type_91f15562_43f5_4386_ac23_9e65ea0a85b0_Class24 ( obj_e2ed921e_99fa_43ce_8e9b_88eb9c176ed3 o )  ) ) ( type_91f15562_43f5_4386_ac23_9e65ea0a85b0_Class8 ( obj_e2ed921e_99fa_43ce_8e9b_88eb9c176ed3 o )  ) ) ( type_91f15562_43f5_4386_ac23_9e65ea0a85b0_Class17 ( obj_e2ed921e_99fa_43ce_8e9b_88eb9c176ed3 o )  ) ) ( type_91f15562_43f5_4386_ac23_9e65ea0a85b0_Class28 ( obj_e2ed921e_99fa_43ce_8e9b_88eb9c176ed3 o )  ) ) ( type_91f15562_43f5_4386_ac23_9e65ea0a85b0_Class4 ( obj_e2ed921e_99fa_43ce_8e9b_88eb9c176ed3 o )  ) )))

 ;end of formula 